100
30
18
19
1
4
12
3
6
16
6
5
2
1
2
20
3
2
16
19
21
4
13
32
30
9
1
8
22
14
17
13
16
9
31
22
31
31
31
14
1
4
13
32
14
13
22
17
19
6
11
32
16
4
16
2
8
1
31
7
2
32
9
12
32
11
27
15
8
3
17
2
5
2
15
21
4
1
13
29
6
6
5
1
3
32
14
31
19
4
18
12
16
7
6
13
31
10
2
8
9
17